sat
(model 
  (define-fun @Fail!0 () Bool
    false)
  (define-fun Q_n0 ((x!1 Int)
   (x!2 Int)
   (x!3 Int)
   (x!4 Int)
   (x!5 Int)
   (x!6 Int)
   (x!7 Int)
   (x!8 Int)
   (x!9 Int)
   (x!10 Int)
   (x!11 Int)
   (x!12 Int)) Bool
    (not (or (not (= x!11 x!12))
             (not (= x!2 x!1))
             (not (= x!2 x!3))
             (not (= x!3 x!4))
             (not (= x!5 x!6))
             (not (= x!6 x!7))
             (not (= x!7 x!8))
             (not (= x!9 x!10))
             (not (= x!10 x!11)))))
  (define-fun Q_n0_b ((x!1 Int)
   (x!2 Int)
   (x!3 Int)
   (x!4 Int)
   (x!5 Int)
   (x!6 Int)
   (x!7 Int)
   (x!8 Int)
   (x!9 Int)
   (x!10 Int)
   (x!11 Int)
   (x!12 Int)) Bool
    (and (= x!2 x!1) (= x!6 x!7) (= x!9 x!10)))
  (define-fun Q_n1 ((x!1 Int)
   (x!2 Int)
   (x!3 Int)
   (x!4 Int)
   (x!5 Int)
   (x!6 Int)
   (x!7 Int)
   (x!8 Int)
   (x!9 Int)
   (x!10 Int)
   (x!11 Int)
   (x!12 Int)) Bool
    (= 4 x!4))
  (define-fun Q_n2 ((x!1 Int)
   (x!2 Int)
   (x!3 Int)
   (x!4 Int)
   (x!5 Int)
   (x!6 Int)
   (x!7 Int)
   (x!8 Int)
   (x!9 Int)
   (x!10 Int)
   (x!11 Int)
   (x!12 Int)) Bool
    (= 4 x!4))
  (define-fun Q_n3 ((x!1 Int)
   (x!2 Int)
   (x!3 Int)
   (x!4 Int)
   (x!5 Int)
   (x!6 Int)
   (x!7 Int)
   (x!8 Int)
   (x!9 Int)
   (x!10 Int)
   (x!11 Int)
   (x!12 Int)) Bool
    (and (= 4 x!4) (= x!2 x!1) (= 4 x!3) (= x!6 x!7) (= x!9 x!10)))
  (define-fun Q_n1_a ((x!1 Int)
   (x!2 Int)
   (x!3 Int)
   (x!4 Int)
   (x!5 Int)
   (x!6 Int)
   (x!7 Int)
   (x!8 Int)
   (x!9 Int)
   (x!10 Int)
   (x!11 Int)
   (x!12 Int)) Bool
    (not (= 2 x!4)))
  (define-fun Q_exit ((x!1 Int)
   (x!2 Int)
   (x!3 Int)
   (x!4 Int)
   (x!5 Int)
   (x!6 Int)
   (x!7 Int)
   (x!8 Int)
   (x!9 Int)
   (x!10 Int)
   (x!11 Int)
   (x!12 Int)) Bool
    (and (= x!2 x!1)
         (= 4 x!4)
         (= 4 x!3)
         (= 4 x!8)
         (= 4 x!6)
         (= 4 x!7)
         (= x!9 x!10)
         (= x!4 x!12)
         (= x!3 x!11)))
  (define-fun Q_n1_1 ((x!1 Int)
   (x!2 Int)
   (x!3 Int)
   (x!4 Int)
   (x!5 Int)
   (x!6 Int)
   (x!7 Int)
   (x!8 Int)
   (x!9 Int)
   (x!10 Int)
   (x!11 Int)
   (x!12 Int)) Bool
    false)
  (define-fun Q_n2_a ((x!1 Int)
   (x!2 Int)
   (x!3 Int)
   (x!4 Int)
   (x!5 Int)
   (x!6 Int)
   (x!7 Int)
   (x!8 Int)
   (x!9 Int)
   (x!10 Int)
   (x!11 Int)
   (x!12 Int)) Bool
    (not (= 1 x!4)))
  (define-fun Q_n2_1 ((x!1 Int)
   (x!2 Int)
   (x!3 Int)
   (x!4 Int)
   (x!5 Int)
   (x!6 Int)
   (x!7 Int)
   (x!8 Int)
   (x!9 Int)
   (x!10 Int)
   (x!11 Int)
   (x!12 Int)) Bool
    false)
  (define-fun Q_n3_b ((x!1 Int)
   (x!2 Int)
   (x!3 Int)
   (x!4 Int)
   (x!5 Int)
   (x!6 Int)
   (x!7 Int)
   (x!8 Int)
   (x!9 Int)
   (x!10 Int)
   (x!11 Int)
   (x!12 Int)) Bool
    (and (not (= 0 x!4))
         (= x!2 x!1)
         (= 4 x!3)
         (= 4 x!4)
         (= x!6 x!7)
         (= x!9 x!10)))
  (define-fun Q_n3_1 ((x!1 Int)
   (x!2 Int)
   (x!3 Int)
   (x!4 Int)
   (x!5 Int)
   (x!6 Int)
   (x!7 Int)
   (x!8 Int)
   (x!9 Int)
   (x!10 Int)
   (x!11 Int)
   (x!12 Int)) Bool
    false)
  (define-fun Q_n3_a ((x!1 Int)
   (x!2 Int)
   (x!3 Int)
   (x!4 Int)
   (x!5 Int)
   (x!6 Int)
   (x!7 Int)
   (x!8 Int)
   (x!9 Int)
   (x!10 Int)
   (x!11 Int)
   (x!12 Int)) Bool
    (not (= 0 x!4)))
  (define-fun Q_n4 ((x!1 Int)
   (x!2 Int)
   (x!3 Int)
   (x!4 Int)
   (x!5 Int)
   (x!6 Int)
   (x!7 Int)
   (x!8 Int)
   (x!9 Int)
   (x!10 Int)
   (x!11 Int)
   (x!12 Int)) Bool
    (and (= x!2 x!1) (= 4 x!4) (= 4 x!3) (= x!6 x!7) (= x!9 x!10)))
  (define-fun Q_n4_a ((x!1 Int)
   (x!2 Int)
   (x!3 Int)
   (x!4 Int)
   (x!5 Int)
   (x!6 Int)
   (x!7 Int)
   (x!8 Int)
   (x!9 Int)
   (x!10 Int)
   (x!11 Int)
   (x!12 Int)) Bool
    (and (= x!2 x!1)
         (= 4 x!3)
         (= 4 x!4)
         (= x!6 4)
         (= 4 x!8)
         (= 4 x!7)
         (= x!9 x!10)))
)
